; benchmark generated from python API
(set-info :status unknown)
(declare-fun R_E1_V6 () Bool)
(declare-fun W_S1_V6 () Bool)
(declare-fun R_E2_V6 () Bool)
(declare-fun W_S1_V3 () Bool)
(declare-fun W_S1_V1 () Bool)
(declare-fun R_S1_V6 () Bool)
(declare-fun R_S1_V4 () Bool)
(declare-fun R_S1_V5 () Bool)
(declare-fun R_S1_V2 () Bool)
(declare-fun R_S1_V3 () Bool)
(declare-fun R_S1_V1 () Bool)
(declare-fun R_E2_V4 () Bool)
(declare-fun R_E2_V2 () Bool)
(declare-fun R_E1_V4 () Bool)
(declare-fun R_E1_V2 () Bool)
(declare-fun R_E1_V5 () Bool)
(declare-fun DISJ_W_S1_R_S1 () Bool)
(declare-fun R_E2_V5 () Bool)
(declare-fun W_S1_V5 () Bool)
(declare-fun W_S1_V4 () Bool)
(declare-fun W_S1_V2 () Bool)
(declare-fun R_E1_V3 () Bool)
(declare-fun R_E1_V1 () Bool)
(declare-fun R_E2_V3 () Bool)
(declare-fun R_E2_V1 () Bool)
(declare-fun DISJ_W_S1_R_E1 () Bool)
(declare-fun DISJ_W_S1_R_E2 () Bool)
(assert
 (let (($x4736 (not (and W_S1_V6 R_E1_V6))))
 (let (($x706 (not (and W_S1_V6 R_E2_V6))))
 (let (($x4722 (forall ((V2_0 Int) )(forall ((V5_0 Int) )(forall ((V4_0 Int) )(forall ((V6_0 Int) )(forall ((MW_S1_V1 Bool) )(forall ((MW_S1_V3 Bool) )(forall ((MW_S1_V2 Bool) )(forall ((MW_S1_V5 Bool) )(forall ((MW_S1_V4 Bool) )(forall ((MW_S1_V6 Bool) )(forall ((S1_V1_!8833 Int) )(forall ((S1_V1_!8839 Int) )(forall ((S1_V1_!8846 Int) )(forall ((S1_V1_!8852 Int) )(forall ((S1_V1_!8861 Int) )(forall ((S1_V1_!8867 Int) )(forall ((S1_V1_!8874 Int) )(forall ((S1_V1_!8880 Int) )(forall ((S1_V3_!8834 Int) )(forall ((S1_V3_!8840 Int) )(forall ((S1_V3_!8847 Int) )(forall ((S1_V3_!8853 Int) )(forall ((S1_V3_!8862 Int) )(forall ((S1_V3_!8868 Int) )(forall ((S1_V3_!8875 Int) )(forall ((S1_V3_!8881 Int) )(forall ((S1_V2_!8835 Int) )(forall ((S1_V2_!8841 Int) )(forall ((S1_V2_!8848 Int) )(forall ((S1_V2_!8854 Int) )(forall ((S1_V2_!8863 Int) )(forall ((S1_V2_!8869 Int) )(forall ((S1_V2_!8876 Int) )(forall ((S1_V2_!8882 Int) )(forall ((E1_!8830 Int) )(forall ((E1_!8858 Int) )(forall ((E1_!8860 Int) )(forall ((E1_!8873 Int) )(forall ((S1_V5_!8836 Int) )(forall ((S1_V5_!8842 Int) )(forall ((S1_V5_!8849 Int) )(forall ((S1_V5_!8855 Int) )(forall ((S1_V5_!8864 Int) )(forall ((S1_V5_!8870 Int) )(forall ((S1_V5_!8877 Int) )(forall ((S1_V5_!8883 Int) )(forall ((E2_!8831 Int) )(forall ((E2_!8832 Int) )(forall ((E2_!8845 Int) )(forall ((E2_!8859 Int) )(forall ((S1_V4_!8837 Int) )(forall ((S1_V4_!8843 Int) )(forall ((S1_V4_!8850 Int) )(forall ((S1_V4_!8856 Int) )(forall ((S1_V4_!8865 Int) )(forall ((S1_V4_!8871 Int) )(forall ((S1_V4_!8878 Int) )(forall ((S1_V4_!8884 Int) )(forall ((S1_V6_!8838 Int) )(forall ((S1_V6_!8844 Int) )(forall ((S1_V6_!8851 Int) )(forall ((S1_V6_!8857 Int) )(forall ((S1_V6_!8866 Int) )(forall ((S1_V6_!8872 Int) )(forall ((S1_V6_!8879 Int) )(forall ((S1_V6_!8885 Int) )(let ((?x2036 (ite MW_S1_V3 S1_V3_!8868 E2_!8859)))
 (let ((?x2868 (+ 1 ?x2036)))
 (let ((?x773 (ite MW_S1_V3 S1_V3_!8881 ?x2868)))
 (let ((?x2303 (ite MW_S1_V3 S1_V3_!8847 E2_!8845)))
 (let ((?x2747 (+ 1 ?x2303)))
 (let ((?x1597 (ite MW_S1_V3 S1_V3_!8853 ?x2747)))
 (let ((?x1212 (ite MW_S1_V1 S1_V1_!8874 E1_!8873)))
 (let ((?x5220 (+ 1 ?x1212)))
 (let ((?x1031 (ite MW_S1_V1 S1_V1_!8880 ?x5220)))
 (let ((?x201 (ite MW_S1_V1 S1_V1_!8839 E1_!8830)))
 (let ((?x5440 (+ 1 ?x201)))
 (let ((?x2095 (ite MW_S1_V1 S1_V1_!8852 ?x5440)))
 (let (($x2966 (and (= ?x2095 ?x1031) (= ?x1597 ?x773) (= (ite MW_S1_V2 S1_V2_!8854 V2_0) (ite MW_S1_V2 S1_V2_!8882 V2_0)) (= (ite MW_S1_V5 S1_V5_!8855 V5_0) (ite MW_S1_V5 S1_V5_!8883 V5_0)) (= (ite MW_S1_V4 S1_V4_!8856 V4_0) (ite MW_S1_V4 S1_V4_!8884 V4_0)) (= (ite MW_S1_V6 S1_V6_!8857 V6_0) (ite MW_S1_V6 S1_V6_!8885 V6_0)))))
 (let (($x993 (>= (ite MW_S1_V1 S1_V1_!8867 (+ 1 (ite MW_S1_V1 S1_V1_!8861 E1_!8860))) (+ (- 1) (ite MW_S1_V2 S1_V2_!8869 V2_0)))))
 (let (($x1772 (>= (ite MW_S1_V3 S1_V3_!8840 (+ 1 (ite MW_S1_V3 S1_V3_!8834 E2_!8832))) (+ (- 1) (ite MW_S1_V4 S1_V4_!8843 V4_0)))))
 (let (($x1963 (and (not (<= V4_0 E2_!8831)) (not (<= V2_0 E1_!8830)) (not (<= V4_0 E2_!8832)) (not (<= (ite MW_S1_V4 S1_V4_!8837 V4_0) (+ 1 (ite MW_S1_V3 S1_V3_!8834 E2_!8832)))) $x1772 (not (<= (ite MW_S1_V2 S1_V2_!8841 V2_0) ?x5440)) (not (<= (ite MW_S1_V4 S1_V4_!8843 V4_0) E2_!8845)) (not (<= (ite MW_S1_V4 S1_V4_!8850 V4_0) ?x2747)) (>= ?x1597 (+ (- 1) (ite MW_S1_V4 S1_V4_!8856 V4_0))) (>= ?x2095 (+ (- 1) (ite MW_S1_V2 S1_V2_!8854 V2_0))) (not (<= V2_0 E1_!8858)) (not (<= V4_0 E2_!8859)) (not (<= V2_0 E1_!8860)) (not (<= (ite MW_S1_V2 S1_V2_!8863 V2_0) (+ 1 (ite MW_S1_V1 S1_V1_!8861 E1_!8860)))) $x993 (not (<= (ite MW_S1_V4 S1_V4_!8871 V4_0) ?x2868)) (not (<= (ite MW_S1_V2 S1_V2_!8869 V2_0) E1_!8873)) (not (<= (ite MW_S1_V2 S1_V2_!8876 V2_0) ?x5220)) (>= ?x1031 (+ (- 1) (ite MW_S1_V2 S1_V2_!8882 V2_0))) (>= ?x773 (+ (- 1) (ite MW_S1_V4 S1_V4_!8884 V4_0))))))
 (let (($x2224 (= S1_V6_!8885 S1_V6_!8879)))
 (let (($x5770 (and (or (not R_S1_V1) (= ?x1212 (+ (- 1) E1_!8873))) (or (not R_S1_V3) (= (ite MW_S1_V3 S1_V3_!8875 ?x2868) ?x2868)) (or (not R_S1_V2) (= (ite MW_S1_V2 S1_V2_!8876 V2_0) (ite MW_S1_V2 S1_V2_!8869 V2_0))) (or (not R_S1_V5) (= (ite MW_S1_V5 S1_V5_!8877 V5_0) (ite MW_S1_V5 S1_V5_!8870 V5_0))) (or (not R_S1_V4) (= (ite MW_S1_V4 S1_V4_!8878 V4_0) (ite MW_S1_V4 S1_V4_!8871 V4_0))) (or (not R_S1_V6) (= (ite MW_S1_V6 S1_V6_!8879 V6_0) (ite MW_S1_V6 S1_V6_!8872 V6_0))))))
 (let (($x4948 (not $x5770)))
 (let (($x2990 (= S1_V6_!8885 S1_V6_!8866)))
 (let (($x1348 (not R_S1_V6)))
 (let (($x3567 (or $x1348 (= (ite MW_S1_V6 S1_V6_!8879 V6_0) V6_0))))
 (let (($x657 (not R_S1_V4)))
 (let (($x2760 (or $x657 (= (ite MW_S1_V4 S1_V4_!8878 V4_0) V4_0))))
 (let (($x240 (not R_S1_V5)))
 (let (($x1188 (or $x240 (= (ite MW_S1_V5 S1_V5_!8877 V5_0) V5_0))))
 (let (($x3524 (not R_S1_V2)))
 (let (($x2405 (or $x3524 (= (ite MW_S1_V2 S1_V2_!8876 V2_0) V2_0))))
 (let (($x3502 (and (or (not R_S1_V1) (= ?x1212 (+ (- 1) E1_!8860))) (or (not R_S1_V3) (= (ite MW_S1_V3 S1_V3_!8875 ?x2868) E2_!8859)) $x2405 $x1188 $x2760 $x3567)))
 (let (($x2243 (not $x3502)))
 (let (($x1718 (= S1_V6_!8885 S1_V6_!8851)))
 (let (($x2871 (and (or (not R_S1_V1) (= ?x1212 ?x201)) (or (not R_S1_V3) (= (ite MW_S1_V3 S1_V3_!8875 ?x2868) E2_!8845)) (or $x3524 (= (ite MW_S1_V2 S1_V2_!8876 V2_0) (ite MW_S1_V2 S1_V2_!8841 V2_0))) (or $x240 (= (ite MW_S1_V5 S1_V5_!8877 V5_0) (ite MW_S1_V5 S1_V5_!8842 V5_0))) (or $x657 (= (ite MW_S1_V4 S1_V4_!8878 V4_0) (ite MW_S1_V4 S1_V4_!8843 V4_0))) (or $x1348 (= (ite MW_S1_V6 S1_V6_!8879 V6_0) (ite MW_S1_V6 S1_V6_!8844 V6_0))))))
 (let (($x230 (not $x2871)))
 (let (($x95 (and (or (not R_S1_V1) (= ?x1212 (+ (- 1) E1_!8830))) (or (not R_S1_V3) (= (ite MW_S1_V3 S1_V3_!8875 ?x2868) E2_!8832)) $x2405 $x1188 $x2760 $x3567)))
 (let (($x2510 (not $x95)))
 (let (($x2999 (= S1_V6_!8872 S1_V6_!8885)))
 (let (($x3051 (and (or (not R_S1_V1) (= (ite MW_S1_V1 S1_V1_!8861 E1_!8860) ?x1212)) (or (not R_S1_V3) (= (ite MW_S1_V3 S1_V3_!8862 E2_!8859) (ite MW_S1_V3 S1_V3_!8875 ?x2868))) (or $x3524 (= (ite MW_S1_V2 S1_V2_!8863 V2_0) (ite MW_S1_V2 S1_V2_!8876 V2_0))) (or $x240 (= (ite MW_S1_V5 S1_V5_!8864 V5_0) (ite MW_S1_V5 S1_V5_!8877 V5_0))) (or $x657 (= (ite MW_S1_V4 S1_V4_!8865 V4_0) (ite MW_S1_V4 S1_V4_!8878 V4_0))) (or $x1348 (= (ite MW_S1_V6 S1_V6_!8866 V6_0) (ite MW_S1_V6 S1_V6_!8879 V6_0))))))
 (let (($x2565 (not $x3051)))
 (let (($x1364 (= S1_V6_!8872 S1_V6_!8879)))
 (let (($x3154 (and (or (not R_S1_V1) (= (ite MW_S1_V1 S1_V1_!8861 E1_!8860) (+ (- 1) E1_!8873))) (or (not R_S1_V3) (= (ite MW_S1_V3 S1_V3_!8862 E2_!8859) ?x2868)) (or $x3524 (= (ite MW_S1_V2 S1_V2_!8863 V2_0) (ite MW_S1_V2 S1_V2_!8869 V2_0))) (or $x240 (= (ite MW_S1_V5 S1_V5_!8864 V5_0) (ite MW_S1_V5 S1_V5_!8870 V5_0))) (or $x657 (= (ite MW_S1_V4 S1_V4_!8865 V4_0) (ite MW_S1_V4 S1_V4_!8871 V4_0))) (or $x1348 (= (ite MW_S1_V6 S1_V6_!8866 V6_0) (ite MW_S1_V6 S1_V6_!8872 V6_0))))))
 (let (($x3221 (not $x3154)))
 (let (($x1817 (= S1_V6_!8872 S1_V6_!8866)))
 (let (($x4945 (or $x1348 (= (ite MW_S1_V6 S1_V6_!8866 V6_0) V6_0))))
 (let (($x1849 (or $x657 (= (ite MW_S1_V4 S1_V4_!8865 V4_0) V4_0))))
 (let (($x207 (or $x240 (= (ite MW_S1_V5 S1_V5_!8864 V5_0) V5_0))))
 (let (($x421 (or $x3524 (= (ite MW_S1_V2 S1_V2_!8863 V2_0) V2_0))))
 (let (($x2537 (and (or (not R_S1_V1) (= (ite MW_S1_V1 S1_V1_!8861 E1_!8860) (+ (- 1) E1_!8860))) (or (not R_S1_V3) (= (ite MW_S1_V3 S1_V3_!8862 E2_!8859) E2_!8859)) $x421 $x207 $x1849 $x4945)))
 (let (($x5902 (not $x2537)))
 (let (($x384 (= S1_V6_!8872 S1_V6_!8857)))
 (let (($x813 (not R_S1_V1)))
 (let (($x5793 (or $x813 (= (ite MW_S1_V1 S1_V1_!8861 E1_!8860) (+ (- 1) (ite MW_S1_V1 S1_V1_!8846 ?x5440))))))
 (let (($x2009 (and $x5793 (or (not R_S1_V3) (= (ite MW_S1_V3 S1_V3_!8862 E2_!8859) ?x2747)) (or $x3524 (= (ite MW_S1_V2 S1_V2_!8863 V2_0) (ite MW_S1_V2 S1_V2_!8848 V2_0))) (or $x240 (= (ite MW_S1_V5 S1_V5_!8864 V5_0) (ite MW_S1_V5 S1_V5_!8849 V5_0))) (or $x657 (= (ite MW_S1_V4 S1_V4_!8865 V4_0) (ite MW_S1_V4 S1_V4_!8850 V4_0))) (or $x1348 (= (ite MW_S1_V6 S1_V6_!8866 V6_0) (ite MW_S1_V6 S1_V6_!8851 V6_0))))))
 (let (($x637 (not $x2009)))
 (let (($x3151 (= S1_V6_!8872 S1_V6_!8851)))
 (let (($x2783 (and (or $x813 (= (ite MW_S1_V1 S1_V1_!8861 E1_!8860) ?x201)) (or (not R_S1_V3) (= (ite MW_S1_V3 S1_V3_!8862 E2_!8859) E2_!8845)) (or $x3524 (= (ite MW_S1_V2 S1_V2_!8863 V2_0) (ite MW_S1_V2 S1_V2_!8841 V2_0))) (or $x240 (= (ite MW_S1_V5 S1_V5_!8864 V5_0) (ite MW_S1_V5 S1_V5_!8842 V5_0))) (or $x657 (= (ite MW_S1_V4 S1_V4_!8865 V4_0) (ite MW_S1_V4 S1_V4_!8843 V4_0))) (or $x1348 (= (ite MW_S1_V6 S1_V6_!8866 V6_0) (ite MW_S1_V6 S1_V6_!8844 V6_0))))))
 (let (($x4137 (not $x2783)))
 (let (($x5467 (= S1_V6_!8872 S1_V6_!8844)))
 (let (($x185 (not R_S1_V3)))
 (let (($x4966 (or $x813 (= (ite MW_S1_V1 S1_V1_!8861 E1_!8860) (+ (- 1) (ite MW_S1_V1 S1_V1_!8833 E1_!8830))))))
 (let (($x3040 (and $x4966 (or $x185 (= (ite MW_S1_V3 S1_V3_!8862 E2_!8859) (+ 1 (ite MW_S1_V3 S1_V3_!8834 E2_!8832)))) (or $x3524 (= (ite MW_S1_V2 S1_V2_!8863 V2_0) (ite MW_S1_V2 S1_V2_!8835 V2_0))) (or $x240 (= (ite MW_S1_V5 S1_V5_!8864 V5_0) (ite MW_S1_V5 S1_V5_!8836 V5_0))) (or $x657 (= (ite MW_S1_V4 S1_V4_!8865 V4_0) (ite MW_S1_V4 S1_V4_!8837 V4_0))) (or $x1348 (= (ite MW_S1_V6 S1_V6_!8866 V6_0) (ite MW_S1_V6 S1_V6_!8838 V6_0))))))
 (let (($x6030 (not $x3040)))
 (let (($x5278 (and (or $x813 (= (ite MW_S1_V1 S1_V1_!8861 E1_!8860) (+ (- 1) E1_!8830))) (or $x185 (= (ite MW_S1_V3 S1_V3_!8862 E2_!8859) E2_!8832)) $x421 $x207 $x1849 $x4945)))
 (let (($x2691 (not $x5278)))
 (let (($x6052 (= S1_V6_!8866 S1_V6_!8879)))
 (let ((?x1357 (ite MW_S1_V6 S1_V6_!8872 V6_0)))
 (let (($x2951 (= V6_0 ?x1357)))
 (let (($x5296 (or $x1348 $x2951)))
 (let ((?x3838 (ite MW_S1_V4 S1_V4_!8871 V4_0)))
 (let (($x1786 (= V4_0 ?x3838)))
 (let (($x5892 (or $x657 $x1786)))
 (let (($x5829 (or $x240 (= V5_0 (ite MW_S1_V5 S1_V5_!8870 V5_0)))))
 (let ((?x5971 (ite MW_S1_V2 S1_V2_!8869 V2_0)))
 (let (($x2983 (= V2_0 ?x5971)))
 (let (($x5738 (or $x3524 $x2983)))
 (let (($x5844 (and (or $x813 (= E1_!8860 E1_!8873)) (or $x185 (= E2_!8859 ?x2868)) $x5738 $x5829 $x5892 $x5296)))
 (let (($x2764 (not $x5844)))
 (let (($x2055 (= S1_V6_!8857 S1_V6_!8885)))
 (let (($x1079 (and (or $x813 (= (ite MW_S1_V1 S1_V1_!8846 ?x5440) ?x5220)) (or $x185 (= ?x2303 (+ (- 1) (ite MW_S1_V3 S1_V3_!8875 ?x2868)))) (or $x3524 (= (ite MW_S1_V2 S1_V2_!8848 V2_0) (ite MW_S1_V2 S1_V2_!8876 V2_0))) (or $x240 (= (ite MW_S1_V5 S1_V5_!8849 V5_0) (ite MW_S1_V5 S1_V5_!8877 V5_0))) (or $x657 (= (ite MW_S1_V4 S1_V4_!8850 V4_0) (ite MW_S1_V4 S1_V4_!8878 V4_0))) (or $x1348 (= (ite MW_S1_V6 S1_V6_!8851 V6_0) (ite MW_S1_V6 S1_V6_!8879 V6_0))))))
 (let (($x43 (not $x1079)))
 (let (($x3628 (= S1_V6_!8857 S1_V6_!8879)))
 (let (($x4720 (and (or $x813 (= (ite MW_S1_V1 S1_V1_!8846 ?x5440) E1_!8873)) (or $x185 (= ?x2303 ?x2036)) (or $x3524 (= (ite MW_S1_V2 S1_V2_!8848 V2_0) ?x5971)) (or $x240 (= (ite MW_S1_V5 S1_V5_!8849 V5_0) (ite MW_S1_V5 S1_V5_!8870 V5_0))) (or $x657 (= (ite MW_S1_V4 S1_V4_!8850 V4_0) ?x3838)) (or $x1348 (= (ite MW_S1_V6 S1_V6_!8851 V6_0) ?x1357)))))
 (let (($x313 (not $x4720)))
 (let (($x2058 (= S1_V6_!8857 S1_V6_!8866)))
 (let (($x3885 (or $x1348 (= (ite MW_S1_V6 S1_V6_!8851 V6_0) V6_0))))
 (let (($x1946 (or $x657 (= (ite MW_S1_V4 S1_V4_!8850 V4_0) V4_0))))
 (let (($x5461 (or $x240 (= (ite MW_S1_V5 S1_V5_!8849 V5_0) V5_0))))
 (let (($x2372 (or $x3524 (= (ite MW_S1_V2 S1_V2_!8848 V2_0) V2_0))))
 (let (($x1401 (and (or $x813 (= (ite MW_S1_V1 S1_V1_!8846 ?x5440) E1_!8860)) (or $x185 (= ?x2303 (+ (- 1) E2_!8859))) $x2372 $x5461 $x1946 $x3885)))
 (let (($x428 (not $x1401)))
 (let (($x5379 (= S1_V6_!8857 S1_V6_!8851)))
 (let (($x573 (and (or $x813 (= (ite MW_S1_V1 S1_V1_!8846 ?x5440) ?x5440)) (or $x185 (= ?x2303 (+ (- 1) E2_!8845))) (or $x3524 (= (ite MW_S1_V2 S1_V2_!8848 V2_0) (ite MW_S1_V2 S1_V2_!8841 V2_0))) (or $x240 (= (ite MW_S1_V5 S1_V5_!8849 V5_0) (ite MW_S1_V5 S1_V5_!8842 V5_0))) (or $x657 (= (ite MW_S1_V4 S1_V4_!8850 V4_0) (ite MW_S1_V4 S1_V4_!8843 V4_0))) (or $x1348 (= (ite MW_S1_V6 S1_V6_!8851 V6_0) (ite MW_S1_V6 S1_V6_!8844 V6_0))))))
 (let (($x1231 (not $x573)))
 (let (($x2101 (and (or $x813 (= (ite MW_S1_V1 S1_V1_!8846 ?x5440) E1_!8830)) (or $x185 (= ?x2303 (+ (- 1) E2_!8832))) $x2372 $x5461 $x1946 $x3885)))
 (let (($x1745 (not $x2101)))
 (let (($x2141 (= S1_V6_!8851 S1_V6_!8879)))
 (let (($x1906 (and (or $x813 (= ?x201 (+ (- 1) E1_!8873))) (or $x185 (= E2_!8845 ?x2868)) (or $x3524 (= (ite MW_S1_V2 S1_V2_!8841 V2_0) ?x5971)) (or $x240 (= (ite MW_S1_V5 S1_V5_!8842 V5_0) (ite MW_S1_V5 S1_V5_!8870 V5_0))) (or $x657 (= (ite MW_S1_V4 S1_V4_!8843 V4_0) ?x3838)) (or $x1348 (= (ite MW_S1_V6 S1_V6_!8844 V6_0) ?x1357)))))
 (let (($x2248 (not $x1906)))
 (let (($x398 (= S1_V6_!8851 S1_V6_!8866)))
 (let (($x332 (or $x1348 (= (ite MW_S1_V6 S1_V6_!8844 V6_0) V6_0))))
 (let (($x3709 (or $x657 (= (ite MW_S1_V4 S1_V4_!8843 V4_0) V4_0))))
 (let (($x2467 (or $x240 (= (ite MW_S1_V5 S1_V5_!8842 V5_0) V5_0))))
 (let (($x443 (or $x3524 (= (ite MW_S1_V2 S1_V2_!8841 V2_0) V2_0))))
 (let (($x1954 (and (or $x813 (= ?x201 (+ (- 1) E1_!8860))) (or $x185 (= E2_!8845 E2_!8859)) $x443 $x2467 $x3709 $x332)))
 (let (($x3728 (not $x1954)))
 (let (($x1400 (= S1_V6_!8844 S1_V6_!8885)))
 (let (($x1751 (or $x185 (= (ite MW_S1_V3 S1_V3_!8834 E2_!8832) (+ (- 1) (ite MW_S1_V3 S1_V3_!8875 ?x2868))))))
 (let (($x723 (and (or $x813 (= (ite MW_S1_V1 S1_V1_!8833 E1_!8830) ?x5220)) $x1751 (or $x3524 (= (ite MW_S1_V2 S1_V2_!8835 V2_0) (ite MW_S1_V2 S1_V2_!8876 V2_0))) (or $x240 (= (ite MW_S1_V5 S1_V5_!8836 V5_0) (ite MW_S1_V5 S1_V5_!8877 V5_0))) (or $x657 (= (ite MW_S1_V4 S1_V4_!8837 V4_0) (ite MW_S1_V4 S1_V4_!8878 V4_0))) (or $x1348 (= (ite MW_S1_V6 S1_V6_!8838 V6_0) (ite MW_S1_V6 S1_V6_!8879 V6_0))))))
 (let (($x835 (not $x723)))
 (let (($x6032 (= S1_V6_!8844 S1_V6_!8879)))
 (let (($x5891 (and (or $x813 (= (ite MW_S1_V1 S1_V1_!8833 E1_!8830) E1_!8873)) (or $x185 (= (ite MW_S1_V3 S1_V3_!8834 E2_!8832) ?x2036)) (or $x3524 (= (ite MW_S1_V2 S1_V2_!8835 V2_0) ?x5971)) (or $x240 (= (ite MW_S1_V5 S1_V5_!8836 V5_0) (ite MW_S1_V5 S1_V5_!8870 V5_0))) (or $x657 (= (ite MW_S1_V4 S1_V4_!8837 V4_0) ?x3838)) (or $x1348 (= (ite MW_S1_V6 S1_V6_!8838 V6_0) ?x1357)))))
 (let (($x2204 (not $x5891)))
 (let (($x5267 (= S1_V6_!8844 S1_V6_!8866)))
 (let (($x4141 (or $x1348 (= (ite MW_S1_V6 S1_V6_!8838 V6_0) V6_0))))
 (let (($x2044 (or $x657 (= (ite MW_S1_V4 S1_V4_!8837 V4_0) V4_0))))
 (let (($x4202 (or $x240 (= (ite MW_S1_V5 S1_V5_!8836 V5_0) V5_0))))
 (let (($x882 (or $x3524 (= (ite MW_S1_V2 S1_V2_!8835 V2_0) V2_0))))
 (let (($x3913 (and (or $x813 (= (ite MW_S1_V1 S1_V1_!8833 E1_!8830) E1_!8860)) (or $x185 (= (ite MW_S1_V3 S1_V3_!8834 E2_!8832) (+ (- 1) E2_!8859))) $x882 $x4202 $x2044 $x4141)))
 (let (($x2087 (not $x3913)))
 (let (($x2479 (= S1_V6_!8844 S1_V6_!8857)))
 (let (($x3623 (and (or $x813 (= (ite MW_S1_V1 S1_V1_!8833 E1_!8830) (ite MW_S1_V1 S1_V1_!8846 ?x5440))) (or $x185 (= (ite MW_S1_V3 S1_V3_!8834 E2_!8832) ?x2303)) (or $x3524 (= (ite MW_S1_V2 S1_V2_!8835 V2_0) (ite MW_S1_V2 S1_V2_!8848 V2_0))) (or $x240 (= (ite MW_S1_V5 S1_V5_!8836 V5_0) (ite MW_S1_V5 S1_V5_!8849 V5_0))) (or $x657 (= (ite MW_S1_V4 S1_V4_!8837 V4_0) (ite MW_S1_V4 S1_V4_!8850 V4_0))) (or $x1348 (= (ite MW_S1_V6 S1_V6_!8838 V6_0) (ite MW_S1_V6 S1_V6_!8851 V6_0))))))
 (let (($x2023 (not $x3623)))
 (let (($x2850 (= S1_V6_!8844 S1_V6_!8851)))
 (let (($x594 (and (or $x813 (= (ite MW_S1_V1 S1_V1_!8833 E1_!8830) ?x5440)) (or $x185 (= (ite MW_S1_V3 S1_V3_!8834 E2_!8832) (+ (- 1) E2_!8845))) (or $x3524 (= (ite MW_S1_V2 S1_V2_!8835 V2_0) (ite MW_S1_V2 S1_V2_!8841 V2_0))) (or $x240 (= (ite MW_S1_V5 S1_V5_!8836 V5_0) (ite MW_S1_V5 S1_V5_!8842 V5_0))) (or $x657 (= (ite MW_S1_V4 S1_V4_!8837 V4_0) (ite MW_S1_V4 S1_V4_!8843 V4_0))) (or $x1348 (= (ite MW_S1_V6 S1_V6_!8838 V6_0) (ite MW_S1_V6 S1_V6_!8844 V6_0))))))
 (let (($x1474 (not $x594)))
 (let (($x1646 (and (or $x813 (= (ite MW_S1_V1 S1_V1_!8833 E1_!8830) E1_!8830)) (or $x185 (= (ite MW_S1_V3 S1_V3_!8834 E2_!8832) (+ (- 1) E2_!8832))) $x882 $x4202 $x2044 $x4141)))
 (let (($x2027 (not $x1646)))
 (let (($x3683 (and (or $x813 (= E1_!8830 E1_!8873)) (or $x185 (= E2_!8832 ?x2868)) $x5738 $x5829 $x5892 $x5296)))
 (let (($x1318 (not $x3683)))
 (let (($x3368 (or (not (and (or $x813 (= E1_!8830 E1_!8860)) (or $x185 (= E2_!8832 E2_!8859)))) (= S1_V6_!8838 S1_V6_!8866))))
 (let ((?x3427 (ite MW_S1_V6 S1_V6_!8844 V6_0)))
 (let (($x3475 (= V6_0 ?x3427)))
 (let (($x2756 (or $x1348 $x3475)))
 (let ((?x4607 (ite MW_S1_V4 S1_V4_!8843 V4_0)))
 (let (($x5055 (= V4_0 ?x4607)))
 (let (($x1319 (or $x657 $x5055)))
 (let (($x4805 (or $x240 (= V5_0 (ite MW_S1_V5 S1_V5_!8842 V5_0)))))
 (let ((?x2939 (ite MW_S1_V2 S1_V2_!8841 V2_0)))
 (let (($x132 (= V2_0 ?x2939)))
 (let (($x5107 (or $x3524 $x132)))
 (let (($x2155 (and (or $x813 (= E1_!8830 ?x5440)) (or $x185 (= E2_!8832 E2_!8845)) $x5107 $x4805 $x1319 $x2756)))
 (let (($x3058 (not $x2155)))
 (let (($x611 (= S1_V4_!8865 S1_V4_!8884)))
 (let (($x2763 (or $x1348 (= V6_0 (ite MW_S1_V6 S1_V6_!8879 V6_0)))))
 (let (($x3379 (or $x657 (= V4_0 (ite MW_S1_V4 S1_V4_!8878 V4_0)))))
 (let (($x2956 (or $x240 (= V5_0 (ite MW_S1_V5 S1_V5_!8877 V5_0)))))
 (let (($x5058 (or $x3524 (= V2_0 (ite MW_S1_V2 S1_V2_!8876 V2_0)))))
 (let (($x4808 (and (or $x813 (= E1_!8860 ?x5220)) (or $x185 (= E2_!8859 (ite MW_S1_V3 S1_V3_!8875 ?x2868))) $x5058 $x2956 $x3379 $x2763)))
 (let (($x736 (not $x4808)))
 (let (($x5749 (= S1_V4_!8865 S1_V4_!8871)))
 (let (($x4491 (or $x1348 (= V6_0 (ite MW_S1_V6 S1_V6_!8866 V6_0)))))
 (let (($x575 (or $x657 (= V4_0 (ite MW_S1_V4 S1_V4_!8865 V4_0)))))
 (let (($x1314 (or $x240 (= V5_0 (ite MW_S1_V5 S1_V5_!8864 V5_0)))))
 (let (($x1715 (or $x3524 (= V2_0 (ite MW_S1_V2 S1_V2_!8863 V2_0)))))
 (let (($x4943 (and (or $x813 (= E1_!8860 (+ 1 (ite MW_S1_V1 S1_V1_!8861 E1_!8860)))) (or $x185 (= E2_!8859 (ite MW_S1_V3 S1_V3_!8862 E2_!8859))) $x1715 $x1314 $x575 $x4491)))
 (let (($x3125 (not $x4943)))
 (let (($x107 (= S1_V4_!8865 S1_V4_!8856)))
 (let (($x674 (or $x1348 (= V6_0 (ite MW_S1_V6 S1_V6_!8851 V6_0)))))
 (let (($x2786 (or $x657 (= V4_0 (ite MW_S1_V4 S1_V4_!8850 V4_0)))))
 (let (($x5116 (or $x240 (= V5_0 (ite MW_S1_V5 S1_V5_!8849 V5_0)))))
 (let (($x5941 (or $x3524 (= V2_0 (ite MW_S1_V2 S1_V2_!8848 V2_0)))))
 (let (($x5787 (and (or $x813 (= E1_!8860 (ite MW_S1_V1 S1_V1_!8846 ?x5440))) (or $x185 (= E2_!8859 ?x2747)) $x5941 $x5116 $x2786 $x674)))
 (let (($x3824 (not $x5787)))
 (let (($x4623 (or $x1348 (= V6_0 (ite MW_S1_V6 S1_V6_!8838 V6_0)))))
 (let (($x2585 (or $x657 (= V4_0 (ite MW_S1_V4 S1_V4_!8837 V4_0)))))
 (let (($x2221 (or $x240 (= V5_0 (ite MW_S1_V5 S1_V5_!8836 V5_0)))))
 (let (($x6035 (or $x3524 (= V2_0 (ite MW_S1_V2 S1_V2_!8835 V2_0)))))
 (let (($x3283 (and (or $x813 (= E1_!8860 (ite MW_S1_V1 S1_V1_!8833 E1_!8830))) (or $x185 (= E2_!8859 (+ 1 (ite MW_S1_V3 S1_V3_!8834 E2_!8832)))) $x6035 $x2221 $x2585 $x4623)))
 (let (($x5045 (not $x3283)))
 (let (($x5952 (not (and (or $x813 (= E1_!8860 E1_!8830)) (or $x185 (= E2_!8859 E2_!8832))))))
 (let (($x2639 (= S1_V4_!8850 S1_V4_!8884)))
 (let (($x1666 (and (or $x813 (= ?x201 ?x1212)) (or $x185 (= E2_!8845 (ite MW_S1_V3 S1_V3_!8875 ?x2868))) (or $x3524 (= ?x2939 (ite MW_S1_V2 S1_V2_!8876 V2_0))) (or $x240 (= (ite MW_S1_V5 S1_V5_!8842 V5_0) (ite MW_S1_V5 S1_V5_!8877 V5_0))) (or $x657 (= ?x4607 (ite MW_S1_V4 S1_V4_!8878 V4_0))) (or $x1348 (= ?x3427 (ite MW_S1_V6 S1_V6_!8879 V6_0))))))
 (let (($x3610 (not $x1666)))
 (let (($x5511 (= S1_V4_!8850 S1_V4_!8871)))
 (let (($x2201 (and (or $x813 (= ?x201 (ite MW_S1_V1 S1_V1_!8861 E1_!8860))) (or $x185 (= E2_!8845 (ite MW_S1_V3 S1_V3_!8862 E2_!8859))) (or $x3524 (= ?x2939 (ite MW_S1_V2 S1_V2_!8863 V2_0))) (or $x240 (= (ite MW_S1_V5 S1_V5_!8842 V5_0) (ite MW_S1_V5 S1_V5_!8864 V5_0))) (or $x657 (= ?x4607 (ite MW_S1_V4 S1_V4_!8865 V4_0))) (or $x1348 (= ?x3427 (ite MW_S1_V6 S1_V6_!8866 V6_0))))))
 (let (($x505 (not $x2201)))
 (let (($x2837 (= S1_V4_!8850 S1_V4_!8856)))
 (let (($x3252 (and (or $x813 (= ?x201 (+ (- 1) (ite MW_S1_V1 S1_V1_!8846 ?x5440)))) (or $x185 (= E2_!8845 ?x2747)) (or $x3524 (= ?x2939 (ite MW_S1_V2 S1_V2_!8848 V2_0))) (or $x240 (= (ite MW_S1_V5 S1_V5_!8842 V5_0) (ite MW_S1_V5 S1_V5_!8849 V5_0))) (or $x657 (= ?x4607 (ite MW_S1_V4 S1_V4_!8850 V4_0))) (or $x1348 (= ?x3427 (ite MW_S1_V6 S1_V6_!8851 V6_0))))))
 (let (($x2434 (not $x3252)))
 (let (($x1741 (and (or $x813 (= ?x201 (+ (- 1) (ite MW_S1_V1 S1_V1_!8833 E1_!8830)))) (or $x185 (= E2_!8845 (+ 1 (ite MW_S1_V3 S1_V3_!8834 E2_!8832)))) (or $x3524 (= ?x2939 (ite MW_S1_V2 S1_V2_!8835 V2_0))) (or $x240 (= (ite MW_S1_V5 S1_V5_!8842 V5_0) (ite MW_S1_V5 S1_V5_!8836 V5_0))) (or $x657 (= ?x4607 (ite MW_S1_V4 S1_V4_!8837 V4_0))) (or $x1348 (= ?x3427 (ite MW_S1_V6 S1_V6_!8838 V6_0))))))
 (let (($x3098 (not $x1741)))
 (let (($x1417 (and (or $x813 (= ?x201 (+ (- 1) E1_!8830))) (or $x185 (= E2_!8845 E2_!8832)) $x443 $x2467 $x3709 $x332)))
 (let (($x487 (not $x1417)))
 (let (($x5838 (or $x185 (= (ite MW_S1_V3 S1_V3_!8834 E2_!8832) (+ (- 1) (ite MW_S1_V3 S1_V3_!8862 E2_!8859))))))
 (let (($x3786 (and (or $x813 (= (ite MW_S1_V1 S1_V1_!8833 E1_!8830) (+ 1 (ite MW_S1_V1 S1_V1_!8861 E1_!8860)))) $x5838 (or $x3524 (= (ite MW_S1_V2 S1_V2_!8835 V2_0) (ite MW_S1_V2 S1_V2_!8863 V2_0))) (or $x240 (= (ite MW_S1_V5 S1_V5_!8836 V5_0) (ite MW_S1_V5 S1_V5_!8864 V5_0))) (or $x657 (= (ite MW_S1_V4 S1_V4_!8837 V4_0) (ite MW_S1_V4 S1_V4_!8865 V4_0))) (or $x1348 (= (ite MW_S1_V6 S1_V6_!8838 V6_0) (ite MW_S1_V6 S1_V6_!8866 V6_0))))))
 (let (($x4054 (not $x3786)))
 (let (($x890 (and (or $x813 (= E1_!8830 ?x5220)) (or $x185 (= E2_!8832 (ite MW_S1_V3 S1_V3_!8875 ?x2868))) $x5058 $x2956 $x3379 $x2763)))
 (let (($x6083 (= E2_!8859 E2_!8845)))
 (let (($x2702 (and (or (not R_E2_V2) $x132) (or (not R_E2_V4) $x5055) (or (not R_E2_V6) $x3475))))
 (let (($x386 (not $x2702)))
 (let (($x3220 (= E2_!8832 E2_!8859)))
 (let (($x5203 (= E2_!8832 E2_!8831)))
 (let (($x6056 (= S1_V5_!8883 S1_V5_!8870)))
 (let (($x1448 (and (or $x813 (= ?x1212 (ite MW_S1_V1 S1_V1_!8861 E1_!8860))) (or $x185 (= (ite MW_S1_V3 S1_V3_!8875 ?x2868) (ite MW_S1_V3 S1_V3_!8862 E2_!8859))) (or $x3524 (= (ite MW_S1_V2 S1_V2_!8876 V2_0) (ite MW_S1_V2 S1_V2_!8863 V2_0))) (or $x240 (= (ite MW_S1_V5 S1_V5_!8877 V5_0) (ite MW_S1_V5 S1_V5_!8864 V5_0))) (or $x657 (= (ite MW_S1_V4 S1_V4_!8878 V4_0) (ite MW_S1_V4 S1_V4_!8865 V4_0))) (or $x1348 (= (ite MW_S1_V6 S1_V6_!8879 V6_0) (ite MW_S1_V6 S1_V6_!8866 V6_0))))))
 (let (($x5498 (not $x1448)))
 (let (($x3925 (and (or $x813 (= ?x1212 (+ (- 1) (ite MW_S1_V1 S1_V1_!8846 ?x5440)))) (or $x185 (= (ite MW_S1_V3 S1_V3_!8875 ?x2868) ?x2747)) (or $x3524 (= (ite MW_S1_V2 S1_V2_!8876 V2_0) (ite MW_S1_V2 S1_V2_!8848 V2_0))) (or $x240 (= (ite MW_S1_V5 S1_V5_!8877 V5_0) (ite MW_S1_V5 S1_V5_!8849 V5_0))) (or $x657 (= (ite MW_S1_V4 S1_V4_!8878 V4_0) (ite MW_S1_V4 S1_V4_!8850 V4_0))) (or $x1348 (= (ite MW_S1_V6 S1_V6_!8879 V6_0) (ite MW_S1_V6 S1_V6_!8851 V6_0))))))
 (let (($x4649 (not $x3925)))
 (let (($x115 (and (or $x813 (= ?x1212 (+ (- 1) (ite MW_S1_V1 S1_V1_!8833 E1_!8830)))) (or $x185 (= (ite MW_S1_V3 S1_V3_!8875 ?x2868) (+ 1 (ite MW_S1_V3 S1_V3_!8834 E2_!8832)))) (or $x3524 (= (ite MW_S1_V2 S1_V2_!8876 V2_0) (ite MW_S1_V2 S1_V2_!8835 V2_0))) (or $x240 (= (ite MW_S1_V5 S1_V5_!8877 V5_0) (ite MW_S1_V5 S1_V5_!8836 V5_0))) (or $x657 (= (ite MW_S1_V4 S1_V4_!8878 V4_0) (ite MW_S1_V4 S1_V4_!8837 V4_0))) (or $x1348 (= (ite MW_S1_V6 S1_V6_!8879 V6_0) (ite MW_S1_V6 S1_V6_!8838 V6_0))))))
 (let (($x5006 (not $x115)))
 (let (($x1495 (and (or $x813 (= E1_!8873 (+ 1 (ite MW_S1_V1 S1_V1_!8861 E1_!8860)))) (or $x185 (= ?x2036 (+ (- 1) (ite MW_S1_V3 S1_V3_!8862 E2_!8859)))) (or $x3524 (= ?x5971 (ite MW_S1_V2 S1_V2_!8863 V2_0))) (or $x240 (= (ite MW_S1_V5 S1_V5_!8870 V5_0) (ite MW_S1_V5 S1_V5_!8864 V5_0))) (or $x657 (= ?x3838 (ite MW_S1_V4 S1_V4_!8865 V4_0))) (or $x1348 (= ?x1357 (ite MW_S1_V6 S1_V6_!8866 V6_0))))))
 (let (($x346 (and (or $x813 (= E1_!8873 (ite MW_S1_V1 S1_V1_!8846 ?x5440))) (or $x185 (= ?x2036 ?x2303)) (or $x3524 (= ?x5971 (ite MW_S1_V2 S1_V2_!8848 V2_0))) (or $x240 (= (ite MW_S1_V5 S1_V5_!8870 V5_0) (ite MW_S1_V5 S1_V5_!8849 V5_0))) (or $x657 (= ?x3838 (ite MW_S1_V4 S1_V4_!8850 V4_0))) (or $x1348 (= ?x1357 (ite MW_S1_V6 S1_V6_!8851 V6_0))))))
 (let (($x5707 (not $x346)))
 (let (($x2379 (and (or $x813 (= E1_!8830 (+ 1 (ite MW_S1_V1 S1_V1_!8861 E1_!8860)))) (or $x185 (= E2_!8832 (ite MW_S1_V3 S1_V3_!8862 E2_!8859))) $x1715 $x1314 $x575 $x4491)))
 (let (($x3752 (and (or $x813 (= E1_!8830 (ite MW_S1_V1 S1_V1_!8846 ?x5440))) (or $x185 (= E2_!8832 ?x2747)) $x5941 $x5116 $x2786 $x674)))
 (let (($x458 (not $x3752)))
 (let (($x3904 (= S1_V5_!8836 S1_V5_!8842)))
 (let (($x1293 (and (or $x813 (= E1_!8830 (ite MW_S1_V1 S1_V1_!8833 E1_!8830))) (or $x185 (= E2_!8832 (+ 1 (ite MW_S1_V3 S1_V3_!8834 E2_!8832)))) $x6035 $x2221 $x2585 $x4623)))
 (let (($x1346 (not $x1293)))
 (let (($x554 (and (or (not R_E1_V2) (= ?x5971 V2_0)) (or (not R_E1_V4) (= ?x3838 V4_0)) (or (not R_E1_V6) (= ?x1357 V6_0)))))
 (let (($x2628 (= E1_!8860 E1_!8873)))
 (let (($x3324 (and (or (not R_E1_V2) $x2983) (or (not R_E1_V4) $x1786) (or (not R_E1_V6) $x2951))))
 (let (($x2749 (not $x3324)))
 (let (($x5883 (= E1_!8860 E1_!8830)))
 (let (($x2633 (= E1_!8830 E1_!8858)))
 (let (($x1471 (= S1_V2_!8876 S1_V2_!8848)))
 (let (($x2587 (and (or $x813 (= E1_!8873 ?x5440)) (or $x185 (= ?x2036 (+ (- 1) E2_!8845))) (or $x3524 (= ?x5971 ?x2939)) (or $x240 (= (ite MW_S1_V5 S1_V5_!8870 V5_0) (ite MW_S1_V5 S1_V5_!8842 V5_0))) (or $x657 (= ?x3838 ?x4607)) (or $x1348 (= ?x1357 ?x3427)))))
 (let (($x3511 (not $x2587)))
 (let (($x3359 (= S1_V2_!8863 S1_V2_!8848)))
 (let (($x1277 (not (and (or $x813 (= E1_!8860 ?x5440)) (or $x185 $x6083) $x5107 $x4805 $x1319 $x2756))))
 (let (($x2566 (= ?x1357 V6_0)))
 (let (($x2176 (or $x1348 $x2566)))
 (let (($x2697 (= ?x3838 V4_0)))
 (let (($x3652 (or $x657 $x2697)))
 (let (($x5167 (or $x240 (= (ite MW_S1_V5 S1_V5_!8870 V5_0) V5_0))))
 (let (($x1311 (= ?x5971 V2_0)))
 (let (($x4575 (or $x3524 $x1311)))
 (let (($x5363 (and (or $x813 (= E1_!8873 E1_!8860)) (or $x185 (= ?x2036 (+ (- 1) E2_!8859))) $x4575 $x5167 $x3652 $x2176)))
 (let (($x2713 (and (or $x813 (= E1_!8873 (ite MW_S1_V1 S1_V1_!8833 E1_!8830))) (or $x185 (= ?x2036 (ite MW_S1_V3 S1_V3_!8834 E2_!8832))) (or $x3524 (= ?x5971 (ite MW_S1_V2 S1_V2_!8835 V2_0))) (or $x240 (= (ite MW_S1_V5 S1_V5_!8870 V5_0) (ite MW_S1_V5 S1_V5_!8836 V5_0))) (or $x657 (= ?x3838 (ite MW_S1_V4 S1_V4_!8837 V4_0))) (or $x1348 (= ?x1357 (ite MW_S1_V6 S1_V6_!8838 V6_0))))))
 (let (($x2522 (and (or $x813 (= E1_!8873 E1_!8830)) (or $x185 (= ?x2036 (+ (- 1) E2_!8832))) $x4575 $x5167 $x3652 $x2176)))
 (let (($x1462 (and (or $x813 (= (ite MW_S1_V1 S1_V1_!8846 ?x5440) (ite MW_S1_V1 S1_V1_!8833 E1_!8830))) (or $x185 (= ?x2303 (ite MW_S1_V3 S1_V3_!8834 E2_!8832))) (or $x3524 (= (ite MW_S1_V2 S1_V2_!8848 V2_0) (ite MW_S1_V2 S1_V2_!8835 V2_0))) (or $x240 (= (ite MW_S1_V5 S1_V5_!8849 V5_0) (ite MW_S1_V5 S1_V5_!8836 V5_0))) (or $x657 (= (ite MW_S1_V4 S1_V4_!8850 V4_0) (ite MW_S1_V4 S1_V4_!8837 V4_0))) (or $x1348 (= (ite MW_S1_V6 S1_V6_!8851 V6_0) (ite MW_S1_V6 S1_V6_!8838 V6_0))))))
 (let (($x1901 (and (or $x813 (= (ite MW_S1_V1 S1_V1_!8846 ?x5440) (+ 1 (ite MW_S1_V1 S1_V1_!8861 E1_!8860)))) (or $x185 (= ?x2303 (+ (- 1) (ite MW_S1_V3 S1_V3_!8862 E2_!8859)))) (or $x3524 (= (ite MW_S1_V2 S1_V2_!8848 V2_0) (ite MW_S1_V2 S1_V2_!8863 V2_0))) (or $x240 (= (ite MW_S1_V5 S1_V5_!8849 V5_0) (ite MW_S1_V5 S1_V5_!8864 V5_0))) (or $x657 (= (ite MW_S1_V4 S1_V4_!8850 V4_0) (ite MW_S1_V4 S1_V4_!8865 V4_0))) (or $x1348 (= (ite MW_S1_V6 S1_V6_!8851 V6_0) (ite MW_S1_V6 S1_V6_!8866 V6_0))))))
 (let (($x1536 (and (or $x1318 (= S1_V1_!8833 S1_V1_!8874)) (or $x2027 (= S1_V1_!8839 S1_V1_!8833)) (or $x1474 (= S1_V1_!8839 S1_V1_!8846)) (or $x2023 (= S1_V1_!8839 S1_V1_!8852)) (or $x2087 (= S1_V1_!8839 S1_V1_!8861)) (or $x4054 (= S1_V1_!8839 S1_V1_!8867)) (or $x2204 (= S1_V1_!8839 S1_V1_!8874)) (or $x835 (= S1_V1_!8839 S1_V1_!8880)) (or $x487 (= S1_V1_!8846 S1_V1_!8833)) (or $x505 (= S1_V1_!8846 S1_V1_!8867)) (or $x2248 (= S1_V1_!8846 S1_V1_!8874)) (or $x3610 (= S1_V1_!8846 S1_V1_!8880)) (or $x1745 (= S1_V1_!8852 S1_V1_!8833)) (or $x1231 (= S1_V1_!8852 S1_V1_!8846)) (or (not $x1901) (= S1_V1_!8852 S1_V1_!8867)) (or $x313 (= S1_V1_!8852 S1_V1_!8874)) (or $x43 (= S1_V1_!8852 S1_V1_!8880)) (or $x5952 (= S1_V1_!8861 S1_V1_!8833)) (or $x1277 (= S1_V1_!8861 S1_V1_!8846)) (or $x3824 (= S1_V1_!8861 S1_V1_!8852)) (or $x3125 (= S1_V1_!8861 S1_V1_!8867)) (or $x2764 (= S1_V1_!8861 S1_V1_!8874)) (or $x736 (= S1_V1_!8861 S1_V1_!8880)) (or $x2691 (= S1_V1_!8867 S1_V1_!8833)) (or $x3221 (= S1_V1_!8867 S1_V1_!8874)) (or $x2565 (= S1_V1_!8867 S1_V1_!8880)) (or $x2510 (= S1_V1_!8880 S1_V1_!8833)) (or $x4948 (= S1_V1_!8880 S1_V1_!8874)) (or $x2027 (= S1_V3_!8840 S1_V3_!8834)) (or $x487 (= S1_V3_!8847 S1_V3_!8834)) (or $x3098 (= S1_V3_!8847 S1_V3_!8840)) (or $x3728 (= S1_V3_!8847 S1_V3_!8862)) (or $x1745 (= S1_V3_!8853 S1_V3_!8834)) (or (not $x1462) (= S1_V3_!8853 S1_V3_!8840)) (or $x1231 (= S1_V3_!8853 S1_V3_!8847)) (or $x428 (= S1_V3_!8853 S1_V3_!8862)) (or $x5952 (= S1_V3_!8862 S1_V3_!8834)) (or $x5045 (= S1_V3_!8862 S1_V3_!8840)) (or $x2691 (= S1_V3_!8868 S1_V3_!8834)) (or $x6030 (= S1_V3_!8868 S1_V3_!8840)) (or $x4137 (= S1_V3_!8868 S1_V3_!8847)) (or $x637 (= S1_V3_!8868 S1_V3_!8853)) (or $x5902 (= S1_V3_!8868 S1_V3_!8862)) (or $x3221 (= S1_V3_!8868 S1_V3_!8875)) (or (not $x2522) (= S1_V3_!8875 S1_V3_!8834)) (or (not $x2713) (= S1_V3_!8875 S1_V3_!8840)) (or $x3511 (= S1_V3_!8875 S1_V3_!8847)) (or $x5707 (= S1_V3_!8875 S1_V3_!8853)) (or (not $x5363) (= S1_V3_!8875 S1_V3_!8862)) (or $x2510 (= S1_V3_!8881 S1_V3_!8834)) (or $x5006 (= S1_V3_!8881 S1_V3_!8840)) (or $x230 (= S1_V3_!8881 S1_V3_!8847)) (or $x4649 (= S1_V3_!8881 S1_V3_!8853)) (or $x2243 (= S1_V3_!8881 S1_V3_!8862)) (or $x5498 (= S1_V3_!8881 S1_V3_!8868)) (or $x4948 (= S1_V3_!8881 S1_V3_!8875)) (or $x1346 (= S1_V2_!8835 S1_V2_!8841)) (or $x3058 (= S1_V2_!8835 S1_V2_!8848)) (or $x458 (= S1_V2_!8835 S1_V2_!8854)) (or $x1318 (= S1_V2_!8835 S1_V2_!8876)) (or $x1474 (= S1_V2_!8841 S1_V2_!8848)) (or $x2023 (= S1_V2_!8841 S1_V2_!8854)) (or $x2204 (= S1_V2_!8841 S1_V2_!8876)) (or $x1231 (= S1_V2_!8854 S1_V2_!8848)) (or $x5952 (= S1_V2_!8863 S1_V2_!8835)) (or $x5045 (= S1_V2_!8863 S1_V2_!8841)) (or $x1277 $x3359) (or $x3824 (= S1_V2_!8863 S1_V2_!8854)) (or $x2764 (= S1_V2_!8863 S1_V2_!8876)) (or $x2691 (= S1_V2_!8869 S1_V2_!8835)) (or $x6030 (= S1_V2_!8869 S1_V2_!8841)) (or $x4137 (= S1_V2_!8869 S1_V2_!8848)) (or $x637 (= S1_V2_!8869 S1_V2_!8854)) (or $x5902 (= S1_V2_!8869 S1_V2_!8863)) (or $x3221 (= S1_V2_!8869 S1_V2_!8876)) (or $x3511 $x1471) (or $x5707 (= S1_V2_!8876 S1_V2_!8854)) (or $x2510 (= S1_V2_!8882 S1_V2_!8835)) (or $x5006 (= S1_V2_!8882 S1_V2_!8841)) (or $x230 (= S1_V2_!8882 S1_V2_!8848)) (or $x4649 (= S1_V2_!8882 S1_V2_!8854)) (or $x2243 (= S1_V2_!8882 S1_V2_!8863)) (or $x5498 (= S1_V2_!8882 S1_V2_!8869)) (or $x4948 (= S1_V2_!8882 S1_V2_!8876)) $x2633 (or $x2749 (= E1_!8830 E1_!8873)) $x5883 (= E1_!8860 E1_!8858) (or $x2749 $x2628) (or (not $x554) (= E1_!8873 E1_!8858)) (or $x1346 $x3904) (or $x458 (= S1_V5_!8836 S1_V5_!8855)) (or (not $x2379) (= S1_V5_!8836 S1_V5_!8870)) (or $x1318 (= S1_V5_!8836 S1_V5_!8877)) (or $x2023 (= S1_V5_!8842 S1_V5_!8855)) (or $x4054 (= S1_V5_!8842 S1_V5_!8870)) (or $x2204 (= S1_V5_!8842 S1_V5_!8877)) (or $x487 (= S1_V5_!8849 S1_V5_!8836)) (or $x3098 (= S1_V5_!8849 S1_V5_!8842)) (or $x2434 (= S1_V5_!8849 S1_V5_!8855)) (or $x3728 (= S1_V5_!8849 S1_V5_!8864)) (or $x505 (= S1_V5_!8849 S1_V5_!8870)) (or $x2248 (= S1_V5_!8849 S1_V5_!8877)) (or $x5952 (= S1_V5_!8864 S1_V5_!8836)) (or $x5045 (= S1_V5_!8864 S1_V5_!8842)) (or $x3824 (= S1_V5_!8864 S1_V5_!8855)) (or $x3125 (= S1_V5_!8864 S1_V5_!8870)) (or $x2764 (= S1_V5_!8864 S1_V5_!8877)) (or $x637 (= S1_V5_!8870 S1_V5_!8855)) (or $x5707 (= S1_V5_!8877 S1_V5_!8855)) (or (not $x1495) (= S1_V5_!8877 S1_V5_!8870)) (or $x2510 (= S1_V5_!8883 S1_V5_!8836)) (or $x5006 (= S1_V5_!8883 S1_V5_!8842)) (or $x230 (= S1_V5_!8883 S1_V5_!8849)) (or $x4649 (= S1_V5_!8883 S1_V5_!8855)) (or $x2243 (= S1_V5_!8883 S1_V5_!8864)) (or $x5498 $x6056) (or $x4948 (= S1_V5_!8883 S1_V5_!8877)) (or $x386 (= E2_!8831 E2_!8845)) (= E2_!8831 E2_!8859) $x5203 (or $x386 (= E2_!8832 E2_!8845)) $x3220 (or $x386 $x6083) (or $x1318 (= S1_V4_!8837 S1_V4_!8878)) (or (not $x890) (= S1_V4_!8837 S1_V4_!8884)) (or $x2027 (= S1_V4_!8843 S1_V4_!8837)) (or $x2023 (= S1_V4_!8843 S1_V4_!8856)) (or $x4054 (= S1_V4_!8843 S1_V4_!8871)) (or $x2204 (= S1_V4_!8843 S1_V4_!8878)) (or $x835 (= S1_V4_!8843 S1_V4_!8884)) (or $x487 (= S1_V4_!8850 S1_V4_!8837)) (or $x3098 (= S1_V4_!8850 S1_V4_!8843)) (or $x2434 $x2837) (or $x3728 (= S1_V4_!8850 S1_V4_!8865)) (or $x505 $x5511) (or $x2248 (= S1_V4_!8850 S1_V4_!8878)) (or $x3610 $x2639) (or $x1745 (= S1_V4_!8856 S1_V4_!8837)) (or $x313 (= S1_V4_!8856 S1_V4_!8878)) (or $x43 (= S1_V4_!8856 S1_V4_!8884)) (or $x5952 (= S1_V4_!8865 S1_V4_!8837)) (or $x5045 (= S1_V4_!8865 S1_V4_!8843)) (or $x3824 $x107) (or $x3125 $x5749) (or $x2764 (= S1_V4_!8865 S1_V4_!8878)) (or $x736 $x611) (or $x2691 (= S1_V4_!8871 S1_V4_!8837)) (or $x637 (= S1_V4_!8871 S1_V4_!8856)) (or $x3221 (= S1_V4_!8871 S1_V4_!8878)) (or $x2565 (= S1_V4_!8871 S1_V4_!8884)) (or $x4948 (= S1_V4_!8884 S1_V4_!8878)) (or $x3058 (= S1_V6_!8838 S1_V6_!8851)) $x3368 (or $x1318 (= S1_V6_!8838 S1_V6_!8879)) (or $x2027 (= S1_V6_!8844 S1_V6_!8838)) (or $x1474 $x2850) (or $x2023 $x2479) (or $x2087 $x5267) (or $x2204 $x6032) (or $x835 $x1400) (or $x3728 $x398) (or $x2248 $x2141) (or $x1745 (= S1_V6_!8857 S1_V6_!8838)) (or $x1231 $x5379) (or $x428 $x2058) (or $x313 $x3628) (or $x43 $x2055) (or $x2764 $x6052) (or $x2691 (= S1_V6_!8872 S1_V6_!8838)) (or $x6030 $x5467) (or $x4137 $x3151) (or $x637 $x384) (or $x5902 $x1817) (or $x3221 $x1364) (or $x2565 $x2999) (or $x2510 (= S1_V6_!8885 S1_V6_!8838)) (or $x230 $x1718) (or $x2243 $x2990) (or $x4948 $x2224) (or (not MW_S1_V1) W_S1_V1) (or (not MW_S1_V3) W_S1_V3) (not MW_S1_V2) (not MW_S1_V4) (or (not MW_S1_V6) W_S1_V6))))
 (or (not $x1536) (not $x1963) $x2966)))))))))))))))))))))))))))))))))))))))))))))))))))))))))))))))))))))))))))))))))))))))))))))))))))))))))))))))))))))))))))))))))))))))))))))))))))))))))))))))))))))))))))))))))))))))))))))))))))))))))))))))))))))))))))))))))))))))))
 )
 )
 )
 )
 )
 )
 )
 )
 )
 )
 )
 )
 )
 )
 )
 )
 )
 )
 )
 )
 )
 )
 )
 )
 )
 )
 )
 )
 )
 )
 )
 )
 )
 )
 )
 )
 )
 )
 )
 )
 )
 )
 )
 )
 )
 )
 )
 )
 )
 )
 )
 )
 )
 )
 )
 )
 )
 )
 )
 )
 )
 )
 )
 )
 )
 ))
 (let (($x5721 (not R_E1_V5)))
 (let (($x2053 (and W_S1_V6 R_S1_V6)))
 (let (($x3189 (and W_S1_V3 R_S1_V3)))
 (let (($x88 (and W_S1_V1 R_S1_V1)))
 (let (($x1768 (= DISJ_W_S1_R_S1 (not (or $x88 $x3189 R_S1_V5 $x2053)))))
 (let (($x4178 (not R_E2_V5)))
 (let (($x928 (or DISJ_W_S1_R_S1 (not W_S1_V3))))
 (let (($x1156 (or DISJ_W_S1_R_S1 (not W_S1_V1))))
 (let (($x3790 (not W_S1_V4)))
 (let (($x2716 (not W_S1_V2)))
 (let (($x2861 (not R_E1_V3)))
 (let (($x4779 (not R_E1_V1)))
 (let (($x1818 (not R_E2_V3)))
 (let (($x4556 (not R_E2_V1)))
 (and DISJ_W_S1_R_E2 DISJ_W_S1_R_E1 $x4556 $x1818 $x4779 $x2861 $x2716 $x3790 $x1156 $x928 W_S1_V5 $x4178 $x1768 $x5721 $x4722 $x706 $x4736)))))))))))))))))))
(check-sat)
